(set-logic QF_S)
(declare-fun T_12 () Bool)
(declare-fun T_13 () Bool)
(declare-fun T_SELECT_4 () Bool)
(declare-fun T_SELECT_5 () Bool)
(declare-fun T_c () Bool)
(declare-fun T_e () Bool)
(declare-fun T_f () Bool)
(declare-fun I0_23 () Int)
(declare-fun I1_23 () Int)
(declare-fun I2_23 () Int)
(declare-fun PCTEMP_LHS_4 () Int)
(declare-fun PCTEMP_LHS_5 () Int)
(declare-fun T_10 () Int)
(declare-fun NEW_DGNode_408 () String)
(declare-fun NEW_DGNode_412 () String)
(declare-fun NEW_DGNode_416 () String)
(declare-fun NEW_DGNode_420 () String)
(declare-fun NEW_DGNode_424 () String)
(declare-fun NEW_DGNode_428 () String)
(declare-fun PCTEMP_LHS_6 () String)
(declare-fun T_8e () String)
(declare-fun T_8f () String)
(declare-fun T_90 () String)
(declare-fun T_91 () String)
(declare-fun T_92 () String)
(declare-fun T_93 () String)
(assert (= T_93 (str.++ T_92 NEW_DGNode_428)))
(assert (= T_92 (str.++ T_91 NEW_DGNode_424)))
(assert (= T_91 (str.++ T_90 NEW_DGNode_420)))
(assert (= T_90 (str.++ T_8f NEW_DGNode_416)))
(assert (= T_8f (str.++ T_8e NEW_DGNode_412)))
(assert (= T_8e (str.++ NEW_DGNode_408 PCTEMP_LHS_6)))
(assert (= NEW_DGNode_408 "__utmb="))
(assert (= PCTEMP_LHS_6 "-"))
(assert (= NEW_DGNode_412 ";"))
(assert (= NEW_DGNode_416 "/"))
(assert (= NEW_DGNode_420 ";"))
(assert (= NEW_DGNode_424 ""))
(assert (= NEW_DGNode_428 ""))
(assert (= T_SELECT_5 (not (= PCTEMP_LHS_5 (- 1)))))
(assert T_f)
(assert (= T_f (not T_e)))
(assert (= T_e (< PCTEMP_LHS_5 0)))
(assert (= T_SELECT_4 (not (= PCTEMP_LHS_4 (- 1)))))
(assert T_c)
(assert (= T_c (< (- 1) PCTEMP_LHS_4)))
(assert (= T_10 (+ PCTEMP_LHS_4 7)))
(assert (>= T_10 0))
(assert (>= PCTEMP_LHS_5 T_10))
(assert (= I2_23 I1_23))
(assert (<= PCTEMP_LHS_5 I1_23))
(assert (= I0_23 (- PCTEMP_LHS_5 T_10)))
(assert (= I0_23 (str.len PCTEMP_LHS_6))) ; len 0
(assert T_12)
(assert T_13)
(assert (= T_13 (not T_12)))
(check-sat)
